Instance: E256-14k.dat
Class:  2
  255 --- number of customers (no depot)
   47 --- number of vehicles
  387 --- number of items
Capacity - height - width of vehicles
  1000     40     20
Node - x - y - demand
    0     0.0   -15.0     0.0
    1    -1.0   -14.0   300.0
    2     1.0   -14.0   300.0
    3    -2.0   -13.0   180.0
    4     0.0   -13.0   300.0
    5     2.0   -13.0   180.0
    6    -3.0   -12.0   128.0
    7    -1.0   -12.0   180.0
    8     1.0   -12.0   180.0
    9     3.0   -12.0   128.0
   10    -4.0   -11.0   100.0
   11    -2.0   -11.0   128.0
   12     0.0   -11.0   180.0
   13     2.0   -11.0   128.0
   14     4.0   -11.0   100.0
   15    -5.0   -10.0    81.0
   16    -3.0   -10.0   100.0
   17    -1.0   -10.0   128.0
   18     1.0   -10.0   128.0
   19     3.0   -10.0   100.0
   20     5.0   -10.0    81.0
   21    -6.0    -9.0    69.0
   22    -4.0    -9.0    81.0
   23    -2.0    -9.0   100.0
   24     0.0    -9.0   128.0
   25     2.0    -9.0   100.0
   26     4.0    -9.0    81.0
   27     6.0    -9.0    69.0
   28    -7.0    -8.0    60.0
   29    -5.0    -8.0    69.0
   30    -3.0    -8.0    81.0
   31    -1.0    -8.0   100.0
   32     1.0    -8.0   100.0
   33     3.0    -8.0    81.0
   34     5.0    -8.0    69.0
   35     7.0    -8.0    60.0
   36    -8.0    -7.0    52.0
   37    -6.0    -7.0    60.0
   38    -4.0    -7.0    69.0
   39    -2.0    -7.0    81.0
   40     0.0    -7.0   100.0
   41     2.0    -7.0    81.0
   42     4.0    -7.0    69.0
   43     6.0    -7.0    60.0
   44     8.0    -7.0    52.0
   45    -9.0    -6.0    47.0
   46    -7.0    -6.0    52.0
   47    -5.0    -6.0    60.0
   48    -3.0    -6.0    69.0
   49    -1.0    -6.0    81.0
   50     1.0    -6.0    81.0
   51     3.0    -6.0    69.0
   52     5.0    -6.0    60.0
   53     7.0    -6.0    52.0
   54     9.0    -6.0    47.0
   55   -10.0    -5.0    42.0
   56    -8.0    -5.0    47.0
   57    -6.0    -5.0    52.0
   58    -4.0    -5.0    60.0
   59    -2.0    -5.0    69.0
   60     0.0    -5.0    81.0
   61     2.0    -5.0    69.0
   62     4.0    -5.0    60.0
   63     6.0    -5.0    52.0
   64     8.0    -5.0    47.0
   65    10.0    -5.0    42.0
   66   -11.0    -4.0    39.0
   67    -9.0    -4.0    42.0
   68    -7.0    -4.0    47.0
   69    -5.0    -4.0    52.0
   70    -3.0    -4.0    60.0
   71    -1.0    -4.0    69.0
   72     1.0    -4.0    69.0
   73     3.0    -4.0    60.0
   74     5.0    -4.0    52.0
   75     7.0    -4.0    47.0
   76     9.0    -4.0    42.0
   77    11.0    -4.0    39.0
   78   -12.0    -3.0    36.0
   79   -10.0    -3.0    39.0
   80    -8.0    -3.0    42.0
   81    -6.0    -3.0    47.0
   82    -4.0    -3.0    52.0
   83    -2.0    -3.0    60.0
   84     0.0    -3.0    69.0
   85     2.0    -3.0    60.0
   86     4.0    -3.0    52.0
   87     6.0    -3.0    47.0
   88     8.0    -3.0    42.0
   89    10.0    -3.0    39.0
   90    12.0    -3.0    36.0
   91   -13.0    -2.0    33.0
   92   -11.0    -2.0    36.0
   93    -9.0    -2.0    39.0
   94    -7.0    -2.0    42.0
   95    -5.0    -2.0    47.0
   96    -3.0    -2.0    52.0
   97    -1.0    -2.0    60.0
   98     1.0    -2.0    60.0
   99     3.0    -2.0    52.0
  100     5.0    -2.0    47.0
  101     7.0    -2.0    42.0
  102     9.0    -2.0    39.0
  103    11.0    -2.0    36.0
  104    13.0    -2.0    33.0
  105   -14.0    -1.0    31.0
  106   -12.0    -1.0    33.0
  107   -10.0    -1.0    36.0
  108    -8.0    -1.0    39.0
  109    -6.0    -1.0    42.0
  110    -4.0    -1.0    47.0
  111    -2.0    -1.0    52.0
  112     0.0    -1.0    60.0
  113     2.0    -1.0    52.0
  114     4.0    -1.0    47.0
  115     6.0    -1.0    42.0
  116     8.0    -1.0    39.0
  117    10.0    -1.0    36.0
  118    12.0    -1.0    33.0
  119    14.0    -1.0    31.0
  120   -15.0     0.0    29.0
  121   -13.0     0.0    31.0
  122   -11.0     0.0    33.0
  123    -9.0     0.0    36.0
  124    -7.0     0.0    39.0
  125    -5.0     0.0    42.0
  126    -3.0     0.0    47.0
  127    -1.0     0.0    52.0
  128     1.0     0.0    52.0
  129     3.0     0.0    47.0
  130     5.0     0.0    42.0
  131     7.0     0.0    39.0
  132     9.0     0.0    36.0
  133    11.0     0.0    33.0
  134    13.0     0.0    31.0
  135    15.0     0.0    29.0
  136   -14.0     1.0    29.0
  137   -12.0     1.0    31.0
  138   -10.0     1.0    33.0
  139    -8.0     1.0    36.0
  140    -6.0     1.0    39.0
  141    -4.0     1.0    42.0
  142    -2.0     1.0    47.0
  143     0.0     1.0    52.0
  144     2.0     1.0    47.0
  145     4.0     1.0    42.0
  146     6.0     1.0    39.0
  147     8.0     1.0    36.0
  148    10.0     1.0    33.0
  149    12.0     1.0    31.0
  150    14.0     1.0    29.0
  151   -13.0     2.0    29.0
  152   -11.0     2.0    31.0
  153    -9.0     2.0    33.0
  154    -7.0     2.0    36.0
  155    -5.0     2.0    39.0
  156    -3.0     2.0    42.0
  157    -1.0     2.0    47.0
  158     1.0     2.0    47.0
  159     3.0     2.0    42.0
  160     5.0     2.0    39.0
  161     7.0     2.0    36.0
  162     9.0     2.0    33.0
  163    11.0     2.0    31.0
  164    13.0     2.0    29.0
  165   -12.0     3.0    29.0
  166   -10.0     3.0    31.0
  167    -8.0     3.0    33.0
  168    -6.0     3.0    36.0
  169    -4.0     3.0    39.0
  170    -2.0     3.0    42.0
  171     0.0     3.0    47.0
  172     2.0     3.0    42.0
  173     4.0     3.0    39.0
  174     6.0     3.0    36.0
  175     8.0     3.0    33.0
  176    10.0     3.0    31.0
  177    12.0     3.0    29.0
  178   -11.0     4.0    29.0
  179    -9.0     4.0    31.0
  180    -7.0     4.0    33.0
  181    -5.0     4.0    36.0
  182    -3.0     4.0    39.0
  183    -1.0     4.0    42.0
  184     1.0     4.0    42.0
  185     3.0     4.0    39.0
  186     5.0     4.0    36.0
  187     7.0     4.0    33.0
  188     9.0     4.0    31.0
  189    11.0     4.0    29.0
  190   -10.0     5.0    29.0
  191    -8.0     5.0    31.0
  192    -6.0     5.0    33.0
  193    -4.0     5.0    36.0
  194    -2.0     5.0    39.0
  195     0.0     5.0    42.0
  196     2.0     5.0    39.0
  197     4.0     5.0    36.0
  198     6.0     5.0    33.0
  199     8.0     5.0    31.0
  200    10.0     5.0    29.0
  201    -9.0     6.0    29.0
  202    -7.0     6.0    31.0
  203    -5.0     6.0    33.0
  204    -3.0     6.0    36.0
  205    -1.0     6.0    39.0
  206     1.0     6.0    39.0
  207     3.0     6.0    36.0
  208     5.0     6.0    33.0
  209     7.0     6.0    31.0
  210     9.0     6.0    29.0
  211    -8.0     7.0    29.0
  212    -6.0     7.0    31.0
  213    -4.0     7.0    33.0
  214    -2.0     7.0    36.0
  215     0.0     7.0    39.0
  216     2.0     7.0    36.0
  217     4.0     7.0    33.0
  218     6.0     7.0    31.0
  219     8.0     7.0    29.0
  220    -7.0     8.0    29.0
  221    -5.0     8.0    31.0
  222    -3.0     8.0    33.0
  223    -1.0     8.0    36.0
  224     1.0     8.0    36.0
  225     3.0     8.0    33.0
  226     5.0     8.0    31.0
  227     7.0     8.0    29.0
  228    -6.0     9.0    29.0
  229    -4.0     9.0    31.0
  230    -2.0     9.0    33.0
  231     0.0     9.0    36.0
  232     2.0     9.0    33.0
  233     4.0     9.0    31.0
  234     6.0     9.0    29.0
  235    -5.0    10.0    29.0
  236    -3.0    10.0    31.0
  237    -1.0    10.0    33.0
  238     1.0    10.0    33.0
  239     3.0    10.0    31.0
  240     5.0    10.0    29.0
  241    -4.0    11.0    29.0
  242    -2.0    11.0    31.0
  243     0.0    11.0    33.0
  244     2.0    11.0    31.0
  245     4.0    11.0    29.0
  246    -3.0    12.0    29.0
  247    -1.0    12.0    31.0
  248     1.0    12.0    31.0
  249     3.0    12.0    29.0
  250    -2.0    13.0    29.0
  251     0.0    13.0    31.0
  252     2.0    13.0    29.0
  253    -1.0    14.0    29.0
  254     1.0    14.0    29.0
  255     0.0    15.0    29.0
Node - number of items - h - w for each item
    0   0
    1   1    6    8
    2   1   12    6
    3   1    9    7
    4   2    8   14   11    5
    5   1   19    2
    6   2   30    3   29    3
    7   2    6   12   19    6
    8   1   28    4
    9   2    4   12    8    9
   10   2    5   13   22    3
   11   2   27    3   22    3
   12   2    4   14    6   11
   13   1   11    5
   14   2    4   15    6   13
   15   2    8   16   36    3
   16   1    5   11
   17   1    8   12
   18   2   14    6   18    3
   19   1    6   17
   20   1   14    6
   21   2    7   15   17    6
   22   1   29    4
   23   2    5    8   30    2
   24   2   10    6   20    2
   25   2    8   16   27    4
   26   1    5   16
   27   1    5    9
   28   1   19    9
   29   1    6    9
   30   2    5   17   16    8
   31   2    7   15   30    3
   32   2    8   15   18    3
   33   1   18    9
   34   2    8   13    8    9
   35   1   15    6
   36   2    8   13   14    7
   37   1   14    9
   38   1   32    3
   39   1   19    3
   40   2    4   15   10    9
   41   2    6   10   19    2
   42   2    8   17   23    4
   43   2   17    8   15    7
   44   1    6   12
   45   1   36    2
   46   2   18    9   21    3
   47   1   25    3
   48   2    7   14   12    7
   49   1   27    4
   50   2    4   12    7    9
   51   1    9    5
   52   1   20    7
   53   2   19    4   18    3
   54   1    6   12
   55   1   17    3
   56   1    4   10
   57   2   25    3   32    2
   58   1   14    7
   59   1   19    3
   60   2    4    8   24    3
   61   1   17    6
   62   1    5    9
   63   2    8   17   18    4
   64   1   12    5
   65   2    7   14   16    3
   66   1   23    2
   67   2   15    9   15    6
   68   1   25    2
   69   1   18    5
   70   1   11    6
   71   2   25    4   13    4
   72   2   19    8    5    8
   73   2   11    8   31    3
   74   2    6   15   19    5
   75   1    4    8
   76   2   11   10   30    3
   77   2   23    3   32    2
   78   1    6   18
   79   2   20    9   22    3
   80   2    6   16   17    4
   81   1   19    7
   82   2   31    3   29    3
   83   1   28    4
   84   2   19    8   25    4
   85   1   12    5
   86   2   15    9   33    3
   87   1   28    3
   88   1   14    8
   89   1   17    4
   90   1    6   14
   91   2    5   10   11    7
   92   1   17    5
   93   1   27    3
   94   1   10    4
   95   2    5   17    7   11
   96   1   18    4
   97   2    9    8    9    5
   98   1   29    3
   99   2    5   14   29    4
  100   2    5   15   16    7
  101   2   11    7   27    4
  102   2   15   10   35    4
  103   1    4   11
  104   2   16   10    8    5
  105   1    8   13
  106   1    6   11
  107   2    5   12   12    4
  108   1    7    9
  109   1    9    8
  110   1   26    3
  111   1   19    8
  112   2    7   12    9    8
  113   1   26    4
  114   2   29    3   30    2
  115   2    6   10   15    5
  116   1    8   13
  117   2   10    6   22    3
  118   2   10    5   20    4
  119   1    5   16
  120   2    6   14   30    2
  121   1   21    3
  122   2   20    8   24    2
  123   1   19    4
  124   2    6   13   23    4
  125   2   17    7   16    2
  126   1   14   10
  127   1   34    3
  128   2   17    5   11    4
  129   2    8   16    8   12
  130   1    5   14
  131   2    7   10   17    3
  132   2   32    2   28    2
  133   1   22    3
  134   1   19    2
  135   2    5   13   25    4
  136   2    7    9   11    4
  137   2   16   10   26    3
  138   1   23    3
  139   2    8   14   18    9
  140   2    9    9   21    2
  141   1   13    5
  142   2    5   13   18    4
  143   2   10    5   17    4
  144   1    6   13
  145   1   21    2
  146   2   19    7   20    5
  147   2   15    9   20    8
  148   2    7   13    7   12
  149   2    7   16    4   16
  150   2   24    3   30    2
  151   2    6   11   23    3
  152   2   17    8    9    8
  153   2    4   11   14    9
  154   1   23    2
  155   2    8   10   16    8
  156   1    7   11
  157   2   14    9   21    3
  158   2    7   13   11    9
  159   1    6   17
  160   2    8   12   33    4
  161   1   30    3
  162   2    5   14   22    2
  163   1    6   10
  164   1   33    2
  165   1    5   10
  166   1   23    2
  167   1   17    7
  168   2   19    4   20    3
  169   2    6   16   28    3
  170   1   18    4
  171   1   31    3
  172   1   17    5
  173   1   19    4
  174   2   17    9   16    6
  175   2    8   17    6    8
  176   1   32    2
  177   1   35    3
  178   2   19    8   29    3
  179   2    7   18    6   18
  180   1    7   11
  181   2    7   17    5   12
  182   2   15    9   12    5
  183   2    5   15   33    3
  184   2   15    6   10    5
  185   2   15    7   21    4
  186   1   20    3
  187   1    4   15
  188   2    7   13   18    5
  189   1   25    3
  190   1   12    7
  191   1   17    8
  192   2    6   12    5   10
  193   2    7    9   16    7
  194   1    6   10
  195   2   13    9   18    3
  196   2   19    6   24    3
  197   1   19    4
  198   2    8   10    6    9
  199   2    6   16   15    6
  200   1   16    9
  201   1    5   17
  202   2    5   16   11   10
  203   2    6    9   34    3
  204   1    6   16
  205   1    9    7
  206   1    5   13
  207   1   23    2
  208   2    5   14   19    7
  209   2    8   16   16    9
  210   1   11    7
  211   2    7   12   26    4
  212   2   12    5   32    3
  213   2    6   14   11    7
  214   1    5   12
  215   1   27    4
  216   2    5   14   16    7
  217   1   26    3
  218   2   34    4   23    2
  219   2    8   13   31    4
  220   1   10    4
  221   1   22    2
  222   1    4   14
  223   1   12    4
  224   2    9    7   27    2
  225   2   17    4   20    3
  226   1   17    2
  227   1    6    9
  228   2    4   14   26    4
  229   2   18    7   33    3
  230   2   13    7   23    2
  231   2   18    8   35    3
  232   2   14    8   26    2
  233   1    4   12
  234   2    7   13   22    4
  235   2    7   11    9    6
  236   2    8    9   16    7
  237   2    6   17   13    5
  238   1   24    2
  239   2    7   11   20    3
  240   1    6    9
  241   1   17    9
  242   2   11   10    5    8
  243   1   35    3
  244   2    8   15   35    3
  245   1    5   16
  246   1   15    8
  247   1   12    5
  248   2   15    8   17    3
  249   2   12    8   36    2
  250   1    5   15
  251   2    9    5   25    3
  252   1   12   10
  253   2    9    8   21    2
  254   2    7   14   32    2
  255   1    9    5
